\ SCIP STATISTICS
\   Problem name     : model
\   Variables        : 420 (420 binary, 0 integer, 0 implicit integer, 0 continuous)
\   Constraints      : 40
Minimize
 Obj: +1 y_0 +1 y_1 +1 y_2 +1 y_3 +1 y_4 +1 y_5 +1 y_6 +1 y_7 +1 y_8 +1 y_9 +1 y_10 +1 y_11 +1 y_12 +1 y_13
      +1 y_14 +1 y_15 +1 y_16 +1 y_17 +1 y_18 +1 y_19
Subject to
 c1: +1 x_0_0 +1 x_0_1 +1 x_0_2 +1 x_0_3 +1 x_0_4 +1 x_0_5 +1 x_0_6 +1 x_0_7 +1 x_0_8 +1 x_0_9 +1 x_0_10
  +1 x_0_11 +1 x_0_12 +1 x_0_13 +1 x_0_14 +1 x_0_15 +1 x_0_16 +1 x_0_17 +1 x_0_18 +1 x_0_19 = +1
 c2: +1 x_1_0 +1 x_1_1 +1 x_1_2 +1 x_1_3 +1 x_1_4 +1 x_1_5 +1 x_1_6 +1 x_1_7 +1 x_1_8 +1 x_1_9 +1 x_1_10
  +1 x_1_11 +1 x_1_12 +1 x_1_13 +1 x_1_14 +1 x_1_15 +1 x_1_16 +1 x_1_17 +1 x_1_18 +1 x_1_19 = +1
 c3: +1 x_2_0 +1 x_2_1 +1 x_2_2 +1 x_2_3 +1 x_2_4 +1 x_2_5 +1 x_2_6 +1 x_2_7 +1 x_2_8 +1 x_2_9 +1 x_2_10
  +1 x_2_11 +1 x_2_12 +1 x_2_13 +1 x_2_14 +1 x_2_15 +1 x_2_16 +1 x_2_17 +1 x_2_18 +1 x_2_19 = +1
 c4: +1 x_3_0 +1 x_3_1 +1 x_3_2 +1 x_3_3 +1 x_3_4 +1 x_3_5 +1 x_3_6 +1 x_3_7 +1 x_3_8 +1 x_3_9 +1 x_3_10
  +1 x_3_11 +1 x_3_12 +1 x_3_13 +1 x_3_14 +1 x_3_15 +1 x_3_16 +1 x_3_17 +1 x_3_18 +1 x_3_19 = +1
 c5: +1 x_4_0 +1 x_4_1 +1 x_4_2 +1 x_4_3 +1 x_4_4 +1 x_4_5 +1 x_4_6 +1 x_4_7 +1 x_4_8 +1 x_4_9 +1 x_4_10
  +1 x_4_11 +1 x_4_12 +1 x_4_13 +1 x_4_14 +1 x_4_15 +1 x_4_16 +1 x_4_17 +1 x_4_18 +1 x_4_19 = +1
 c6: +1 x_5_0 +1 x_5_1 +1 x_5_2 +1 x_5_3 +1 x_5_4 +1 x_5_5 +1 x_5_6 +1 x_5_7 +1 x_5_8 +1 x_5_9 +1 x_5_10
  +1 x_5_11 +1 x_5_12 +1 x_5_13 +1 x_5_14 +1 x_5_15 +1 x_5_16 +1 x_5_17 +1 x_5_18 +1 x_5_19 = +1
 c7: +1 x_6_0 +1 x_6_1 +1 x_6_2 +1 x_6_3 +1 x_6_4 +1 x_6_5 +1 x_6_6 +1 x_6_7 +1 x_6_8 +1 x_6_9 +1 x_6_10
  +1 x_6_11 +1 x_6_12 +1 x_6_13 +1 x_6_14 +1 x_6_15 +1 x_6_16 +1 x_6_17 +1 x_6_18 +1 x_6_19 = +1
 c8: +1 x_7_0 +1 x_7_1 +1 x_7_2 +1 x_7_3 +1 x_7_4 +1 x_7_5 +1 x_7_6 +1 x_7_7 +1 x_7_8 +1 x_7_9 +1 x_7_10
  +1 x_7_11 +1 x_7_12 +1 x_7_13 +1 x_7_14 +1 x_7_15 +1 x_7_16 +1 x_7_17 +1 x_7_18 +1 x_7_19 = +1
 c9: +1 x_8_0 +1 x_8_1 +1 x_8_2 +1 x_8_3 +1 x_8_4 +1 x_8_5 +1 x_8_6 +1 x_8_7 +1 x_8_8 +1 x_8_9 +1 x_8_10
  +1 x_8_11 +1 x_8_12 +1 x_8_13 +1 x_8_14 +1 x_8_15 +1 x_8_16 +1 x_8_17 +1 x_8_18 +1 x_8_19 = +1
 c10: +1 x_9_0 +1 x_9_1 +1 x_9_2 +1 x_9_3 +1 x_9_4 +1 x_9_5 +1 x_9_6 +1 x_9_7 +1 x_9_8 +1 x_9_9 +1 x_9_10
  +1 x_9_11 +1 x_9_12 +1 x_9_13 +1 x_9_14 +1 x_9_15 +1 x_9_16 +1 x_9_17 +1 x_9_18 +1 x_9_19 = +1
 c11: +1 x_10_0 +1 x_10_1 +1 x_10_2 +1 x_10_3 +1 x_10_4 +1 x_10_5 +1 x_10_6 +1 x_10_7 +1 x_10_8 +1 x_10_9
  +1 x_10_10 +1 x_10_11 +1 x_10_12 +1 x_10_13 +1 x_10_14 +1 x_10_15 +1 x_10_16 +1 x_10_17 +1 x_10_18 +1 x_10_19
  = +1
 c12: +1 x_11_0 +1 x_11_1 +1 x_11_2 +1 x_11_3 +1 x_11_4 +1 x_11_5 +1 x_11_6 +1 x_11_7 +1 x_11_8 +1 x_11_9
  +1 x_11_10 +1 x_11_11 +1 x_11_12 +1 x_11_13 +1 x_11_14 +1 x_11_15 +1 x_11_16 +1 x_11_17 +1 x_11_18 +1 x_11_19
  = +1
 c13: +1 x_12_0 +1 x_12_1 +1 x_12_2 +1 x_12_3 +1 x_12_4 +1 x_12_5 +1 x_12_6 +1 x_12_7 +1 x_12_8 +1 x_12_9
  +1 x_12_10 +1 x_12_11 +1 x_12_12 +1 x_12_13 +1 x_12_14 +1 x_12_15 +1 x_12_16 +1 x_12_17 +1 x_12_18 +1 x_12_19
  = +1
 c14: +1 x_13_0 +1 x_13_1 +1 x_13_2 +1 x_13_3 +1 x_13_4 +1 x_13_5 +1 x_13_6 +1 x_13_7 +1 x_13_8 +1 x_13_9
  +1 x_13_10 +1 x_13_11 +1 x_13_12 +1 x_13_13 +1 x_13_14 +1 x_13_15 +1 x_13_16 +1 x_13_17 +1 x_13_18 +1 x_13_19
  = +1
 c15: +1 x_14_0 +1 x_14_1 +1 x_14_2 +1 x_14_3 +1 x_14_4 +1 x_14_5 +1 x_14_6 +1 x_14_7 +1 x_14_8 +1 x_14_9
  +1 x_14_10 +1 x_14_11 +1 x_14_12 +1 x_14_13 +1 x_14_14 +1 x_14_15 +1 x_14_16 +1 x_14_17 +1 x_14_18 +1 x_14_19
  = +1
 c16: +1 x_15_0 +1 x_15_1 +1 x_15_2 +1 x_15_3 +1 x_15_4 +1 x_15_5 +1 x_15_6 +1 x_15_7 +1 x_15_8 +1 x_15_9
  +1 x_15_10 +1 x_15_11 +1 x_15_12 +1 x_15_13 +1 x_15_14 +1 x_15_15 +1 x_15_16 +1 x_15_17 +1 x_15_18 +1 x_15_19
  = +1
 c17: +1 x_16_0 +1 x_16_1 +1 x_16_2 +1 x_16_3 +1 x_16_4 +1 x_16_5 +1 x_16_6 +1 x_16_7 +1 x_16_8 +1 x_16_9
  +1 x_16_10 +1 x_16_11 +1 x_16_12 +1 x_16_13 +1 x_16_14 +1 x_16_15 +1 x_16_16 +1 x_16_17 +1 x_16_18 +1 x_16_19
  = +1
 c18: +1 x_17_0 +1 x_17_1 +1 x_17_2 +1 x_17_3 +1 x_17_4 +1 x_17_5 +1 x_17_6 +1 x_17_7 +1 x_17_8 +1 x_17_9
  +1 x_17_10 +1 x_17_11 +1 x_17_12 +1 x_17_13 +1 x_17_14 +1 x_17_15 +1 x_17_16 +1 x_17_17 +1 x_17_18 +1 x_17_19
  = +1
 c19: +1 x_18_0 +1 x_18_1 +1 x_18_2 +1 x_18_3 +1 x_18_4 +1 x_18_5 +1 x_18_6 +1 x_18_7 +1 x_18_8 +1 x_18_9
  +1 x_18_10 +1 x_18_11 +1 x_18_12 +1 x_18_13 +1 x_18_14 +1 x_18_15 +1 x_18_16 +1 x_18_17 +1 x_18_18 +1 x_18_19
  = +1
 c20: +1 x_19_0 +1 x_19_1 +1 x_19_2 +1 x_19_3 +1 x_19_4 +1 x_19_5 +1 x_19_6 +1 x_19_7 +1 x_19_8 +1 x_19_9
  +1 x_19_10 +1 x_19_11 +1 x_19_12 +1 x_19_13 +1 x_19_14 +1 x_19_15 +1 x_19_16 +1 x_19_17 +1 x_19_18 +1 x_19_19
  = +1
 c21: +16 x_0_0 +26 x_1_0 +22 x_2_0 +21 x_3_0 +23 x_4_0 +17 x_5_0 +27 x_6_0 +90 x_7_0 +82 x_8_0 +30 x_9_0
  +88 x_10_0 +93 x_11_0 +28 x_12_0 +19 x_13_0 +96 x_14_0 +29 x_15_0 +12 x_16_0 +97 x_17_0 +24 x_18_0 +14 x_19_0
  -100 y_0 <= +0
 c22: +16 x_0_1 +26 x_1_1 +22 x_2_1 +21 x_3_1 +23 x_4_1 +17 x_5_1 +27 x_6_1 +90 x_7_1 +82 x_8_1 +30 x_9_1
  +88 x_10_1 +93 x_11_1 +28 x_12_1 +19 x_13_1 +96 x_14_1 +29 x_15_1 +12 x_16_1 +97 x_17_1 +24 x_18_1 +14 x_19_1
  -100 y_1 <= +0
 c23: +16 x_0_2 +26 x_1_2 +22 x_2_2 +21 x_3_2 +23 x_4_2 +17 x_5_2 +27 x_6_2 +90 x_7_2 +82 x_8_2 +30 x_9_2
  +88 x_10_2 +93 x_11_2 +28 x_12_2 +19 x_13_2 +96 x_14_2 +29 x_15_2 +12 x_16_2 +97 x_17_2 +24 x_18_2 +14 x_19_2
  -100 y_2 <= +0
 c24: +16 x_0_3 +26 x_1_3 +22 x_2_3 +21 x_3_3 +23 x_4_3 +17 x_5_3 +27 x_6_3 +90 x_7_3 +82 x_8_3 +30 x_9_3
  +88 x_10_3 +93 x_11_3 +28 x_12_3 +19 x_13_3 +96 x_14_3 +29 x_15_3 +12 x_16_3 +97 x_17_3 +24 x_18_3 +14 x_19_3
  -100 y_3 <= +0
 c25: +16 x_0_4 +26 x_1_4 +22 x_2_4 +21 x_3_4 +23 x_4_4 +17 x_5_4 +27 x_6_4 +90 x_7_4 +82 x_8_4 +30 x_9_4
  +88 x_10_4 +93 x_11_4 +28 x_12_4 +19 x_13_4 +96 x_14_4 +29 x_15_4 +12 x_16_4 +97 x_17_4 +24 x_18_4 +14 x_19_4
  -100 y_4 <= +0
 c26: +16 x_0_5 +26 x_1_5 +22 x_2_5 +21 x_3_5 +23 x_4_5 +17 x_5_5 +27 x_6_5 +90 x_7_5 +82 x_8_5 +30 x_9_5
  +88 x_10_5 +93 x_11_5 +28 x_12_5 +19 x_13_5 +96 x_14_5 +29 x_15_5 +12 x_16_5 +97 x_17_5 +24 x_18_5 +14 x_19_5
  -100 y_5 <= +0
 c27: +16 x_0_6 +26 x_1_6 +22 x_2_6 +21 x_3_6 +23 x_4_6 +17 x_5_6 +27 x_6_6 +90 x_7_6 +82 x_8_6 +30 x_9_6
  +88 x_10_6 +93 x_11_6 +28 x_12_6 +19 x_13_6 +96 x_14_6 +29 x_15_6 +12 x_16_6 +97 x_17_6 +24 x_18_6 +14 x_19_6
  -100 y_6 <= +0
 c28: +16 x_0_7 +26 x_1_7 +22 x_2_7 +21 x_3_7 +23 x_4_7 +17 x_5_7 +27 x_6_7 +90 x_7_7 +82 x_8_7 +30 x_9_7
  +88 x_10_7 +93 x_11_7 +28 x_12_7 +19 x_13_7 +96 x_14_7 +29 x_15_7 +12 x_16_7 +97 x_17_7 +24 x_18_7 +14 x_19_7
  -100 y_7 <= +0
 c29: +16 x_0_8 +26 x_1_8 +22 x_2_8 +21 x_3_8 +23 x_4_8 +17 x_5_8 +27 x_6_8 +90 x_7_8 +82 x_8_8 +30 x_9_8
  +88 x_10_8 +93 x_11_8 +28 x_12_8 +19 x_13_8 +96 x_14_8 +29 x_15_8 +12 x_16_8 +97 x_17_8 +24 x_18_8 +14 x_19_8
  -100 y_8 <= +0
 c30: +16 x_0_9 +26 x_1_9 +22 x_2_9 +21 x_3_9 +23 x_4_9 +17 x_5_9 +27 x_6_9 +90 x_7_9 +82 x_8_9 +30 x_9_9
  +88 x_10_9 +93 x_11_9 +28 x_12_9 +19 x_13_9 +96 x_14_9 +29 x_15_9 +12 x_16_9 +97 x_17_9 +24 x_18_9 +14 x_19_9
  -100 y_9 <= +0
 c31: +16 x_0_10 +26 x_1_10 +22 x_2_10 +21 x_3_10 +23 x_4_10 +17 x_5_10 +27 x_6_10 +90 x_7_10 +82 x_8_10
  +30 x_9_10 +88 x_10_10 +93 x_11_10 +28 x_12_10 +19 x_13_10 +96 x_14_10 +29 x_15_10 +12 x_16_10 +97 x_17_10
  +24 x_18_10 +14 x_19_10 -100 y_10 <= +0
 c32: +16 x_0_11 +26 x_1_11 +22 x_2_11 +21 x_3_11 +23 x_4_11 +17 x_5_11 +27 x_6_11 +90 x_7_11 +82 x_8_11
  +30 x_9_11 +88 x_10_11 +93 x_11_11 +28 x_12_11 +19 x_13_11 +96 x_14_11 +29 x_15_11 +12 x_16_11 +97 x_17_11
  +24 x_18_11 +14 x_19_11 -100 y_11 <= +0
 c33: +16 x_0_12 +26 x_1_12 +22 x_2_12 +21 x_3_12 +23 x_4_12 +17 x_5_12 +27 x_6_12 +90 x_7_12 +82 x_8_12
  +30 x_9_12 +88 x_10_12 +93 x_11_12 +28 x_12_12 +19 x_13_12 +96 x_14_12 +29 x_15_12 +12 x_16_12 +97 x_17_12
  +24 x_18_12 +14 x_19_12 -100 y_12 <= +0
 c34: +16 x_0_13 +26 x_1_13 +22 x_2_13 +21 x_3_13 +23 x_4_13 +17 x_5_13 +27 x_6_13 +90 x_7_13 +82 x_8_13
  +30 x_9_13 +88 x_10_13 +93 x_11_13 +28 x_12_13 +19 x_13_13 +96 x_14_13 +29 x_15_13 +12 x_16_13 +97 x_17_13
  +24 x_18_13 +14 x_19_13 -100 y_13 <= +0
 c35: +16 x_0_14 +26 x_1_14 +22 x_2_14 +21 x_3_14 +23 x_4_14 +17 x_5_14 +27 x_6_14 +90 x_7_14 +82 x_8_14
  +30 x_9_14 +88 x_10_14 +93 x_11_14 +28 x_12_14 +19 x_13_14 +96 x_14_14 +29 x_15_14 +12 x_16_14 +97 x_17_14
  +24 x_18_14 +14 x_19_14 -100 y_14 <= +0
 c36: +16 x_0_15 +26 x_1_15 +22 x_2_15 +21 x_3_15 +23 x_4_15 +17 x_5_15 +27 x_6_15 +90 x_7_15 +82 x_8_15
  +30 x_9_15 +88 x_10_15 +93 x_11_15 +28 x_12_15 +19 x_13_15 +96 x_14_15 +29 x_15_15 +12 x_16_15 +97 x_17_15
  +24 x_18_15 +14 x_19_15 -100 y_15 <= +0
 c37: +16 x_0_16 +26 x_1_16 +22 x_2_16 +21 x_3_16 +23 x_4_16 +17 x_5_16 +27 x_6_16 +90 x_7_16 +82 x_8_16
  +30 x_9_16 +88 x_10_16 +93 x_11_16 +28 x_12_16 +19 x_13_16 +96 x_14_16 +29 x_15_16 +12 x_16_16 +97 x_17_16
  +24 x_18_16 +14 x_19_16 -100 y_16 <= +0
 c38: +16 x_0_17 +26 x_1_17 +22 x_2_17 +21 x_3_17 +23 x_4_17 +17 x_5_17 +27 x_6_17 +90 x_7_17 +82 x_8_17
  +30 x_9_17 +88 x_10_17 +93 x_11_17 +28 x_12_17 +19 x_13_17 +96 x_14_17 +29 x_15_17 +12 x_16_17 +97 x_17_17
  +24 x_18_17 +14 x_19_17 -100 y_17 <= +0
 c39: +16 x_0_18 +26 x_1_18 +22 x_2_18 +21 x_3_18 +23 x_4_18 +17 x_5_18 +27 x_6_18 +90 x_7_18 +82 x_8_18
  +30 x_9_18 +88 x_10_18 +93 x_11_18 +28 x_12_18 +19 x_13_18 +96 x_14_18 +29 x_15_18 +12 x_16_18 +97 x_17_18
  +24 x_18_18 +14 x_19_18 -100 y_18 <= +0
 c40: +16 x_0_19 +26 x_1_19 +22 x_2_19 +21 x_3_19 +23 x_4_19 +17 x_5_19 +27 x_6_19 +90 x_7_19 +82 x_8_19
  +30 x_9_19 +88 x_10_19 +93 x_11_19 +28 x_12_19 +19 x_13_19 +96 x_14_19 +29 x_15_19 +12 x_16_19 +97 x_17_19
  +24 x_18_19 +14 x_19_19 -100 y_19 <= +0
Bounds
 0 <= y_0 <= 1
 0 <= x_0_0 <= 1
 0 <= x_1_0 <= 1
 0 <= x_2_0 <= 1
 0 <= x_3_0 <= 1
 0 <= x_4_0 <= 1
 0 <= x_5_0 <= 1
 0 <= x_6_0 <= 1
 0 <= x_7_0 <= 1
 0 <= x_8_0 <= 1
 0 <= x_9_0 <= 1
 0 <= x_10_0 <= 1
 0 <= x_11_0 <= 1
 0 <= x_12_0 <= 1
 0 <= x_13_0 <= 1
 0 <= x_14_0 <= 1
 0 <= x_15_0 <= 1
 0 <= x_16_0 <= 1
 0 <= x_17_0 <= 1
 0 <= x_18_0 <= 1
 0 <= x_19_0 <= 1
 0 <= y_1 <= 1
 0 <= x_0_1 <= 1
 0 <= x_1_1 <= 1
 0 <= x_2_1 <= 1
 0 <= x_3_1 <= 1
 0 <= x_4_1 <= 1
 0 <= x_5_1 <= 1
 0 <= x_6_1 <= 1
 0 <= x_7_1 <= 1
 0 <= x_8_1 <= 1
 0 <= x_9_1 <= 1
 0 <= x_10_1 <= 1
 0 <= x_11_1 <= 1
 0 <= x_12_1 <= 1
 0 <= x_13_1 <= 1
 0 <= x_14_1 <= 1
 0 <= x_15_1 <= 1
 0 <= x_16_1 <= 1
 0 <= x_17_1 <= 1
 0 <= x_18_1 <= 1
 0 <= x_19_1 <= 1
 0 <= y_2 <= 1
 0 <= x_0_2 <= 1
 0 <= x_1_2 <= 1
 0 <= x_2_2 <= 1
 0 <= x_3_2 <= 1
 0 <= x_4_2 <= 1
 0 <= x_5_2 <= 1
 0 <= x_6_2 <= 1
 0 <= x_7_2 <= 1
 0 <= x_8_2 <= 1
 0 <= x_9_2 <= 1
 0 <= x_10_2 <= 1
 0 <= x_11_2 <= 1
 0 <= x_12_2 <= 1
 0 <= x_13_2 <= 1
 0 <= x_14_2 <= 1
 0 <= x_15_2 <= 1
 0 <= x_16_2 <= 1
 0 <= x_17_2 <= 1
 0 <= x_18_2 <= 1
 0 <= x_19_2 <= 1
 0 <= y_3 <= 1
 0 <= x_0_3 <= 1
 0 <= x_1_3 <= 1
 0 <= x_2_3 <= 1
 0 <= x_3_3 <= 1
 0 <= x_4_3 <= 1
 0 <= x_5_3 <= 1
 0 <= x_6_3 <= 1
 0 <= x_7_3 <= 1
 0 <= x_8_3 <= 1
 0 <= x_9_3 <= 1
 0 <= x_10_3 <= 1
 0 <= x_11_3 <= 1
 0 <= x_12_3 <= 1
 0 <= x_13_3 <= 1
 0 <= x_14_3 <= 1
 0 <= x_15_3 <= 1
 0 <= x_16_3 <= 1
 0 <= x_17_3 <= 1
 0 <= x_18_3 <= 1
 0 <= x_19_3 <= 1
 0 <= y_4 <= 1
 0 <= x_0_4 <= 1
 0 <= x_1_4 <= 1
 0 <= x_2_4 <= 1
 0 <= x_3_4 <= 1
 0 <= x_4_4 <= 1
 0 <= x_5_4 <= 1
 0 <= x_6_4 <= 1
 0 <= x_7_4 <= 1
 0 <= x_8_4 <= 1
 0 <= x_9_4 <= 1
 0 <= x_10_4 <= 1
 0 <= x_11_4 <= 1
 0 <= x_12_4 <= 1
 0 <= x_13_4 <= 1
 0 <= x_14_4 <= 1
 0 <= x_15_4 <= 1
 0 <= x_16_4 <= 1
 0 <= x_17_4 <= 1
 0 <= x_18_4 <= 1
 0 <= x_19_4 <= 1
 0 <= y_5 <= 1
 0 <= x_0_5 <= 1
 0 <= x_1_5 <= 1
 0 <= x_2_5 <= 1
 0 <= x_3_5 <= 1
 0 <= x_4_5 <= 1
 0 <= x_5_5 <= 1
 0 <= x_6_5 <= 1
 0 <= x_7_5 <= 1
 0 <= x_8_5 <= 1
 0 <= x_9_5 <= 1
 0 <= x_10_5 <= 1
 0 <= x_11_5 <= 1
 0 <= x_12_5 <= 1
 0 <= x_13_5 <= 1
 0 <= x_14_5 <= 1
 0 <= x_15_5 <= 1
 0 <= x_16_5 <= 1
 0 <= x_17_5 <= 1
 0 <= x_18_5 <= 1
 0 <= x_19_5 <= 1
 0 <= y_6 <= 1
 0 <= x_0_6 <= 1
 0 <= x_1_6 <= 1
 0 <= x_2_6 <= 1
 0 <= x_3_6 <= 1
 0 <= x_4_6 <= 1
 0 <= x_5_6 <= 1
 0 <= x_6_6 <= 1
 0 <= x_7_6 <= 1
 0 <= x_8_6 <= 1
 0 <= x_9_6 <= 1
 0 <= x_10_6 <= 1
 0 <= x_11_6 <= 1
 0 <= x_12_6 <= 1
 0 <= x_13_6 <= 1
 0 <= x_14_6 <= 1
 0 <= x_15_6 <= 1
 0 <= x_16_6 <= 1
 0 <= x_17_6 <= 1
 0 <= x_18_6 <= 1
 0 <= x_19_6 <= 1
 0 <= y_7 <= 1
 0 <= x_0_7 <= 1
 0 <= x_1_7 <= 1
 0 <= x_2_7 <= 1
 0 <= x_3_7 <= 1
 0 <= x_4_7 <= 1
 0 <= x_5_7 <= 1
 0 <= x_6_7 <= 1
 0 <= x_7_7 <= 1
 0 <= x_8_7 <= 1
 0 <= x_9_7 <= 1
 0 <= x_10_7 <= 1
 0 <= x_11_7 <= 1
 0 <= x_12_7 <= 1
 0 <= x_13_7 <= 1
 0 <= x_14_7 <= 1
 0 <= x_15_7 <= 1
 0 <= x_16_7 <= 1
 0 <= x_17_7 <= 1
 0 <= x_18_7 <= 1
 0 <= x_19_7 <= 1
 0 <= y_8 <= 1
 0 <= x_0_8 <= 1
 0 <= x_1_8 <= 1
 0 <= x_2_8 <= 1
 0 <= x_3_8 <= 1
 0 <= x_4_8 <= 1
 0 <= x_5_8 <= 1
 0 <= x_6_8 <= 1
 0 <= x_7_8 <= 1
 0 <= x_8_8 <= 1
 0 <= x_9_8 <= 1
 0 <= x_10_8 <= 1
 0 <= x_11_8 <= 1
 0 <= x_12_8 <= 1
 0 <= x_13_8 <= 1
 0 <= x_14_8 <= 1
 0 <= x_15_8 <= 1
 0 <= x_16_8 <= 1
 0 <= x_17_8 <= 1
 0 <= x_18_8 <= 1
 0 <= x_19_8 <= 1
 0 <= y_9 <= 1
 0 <= x_0_9 <= 1
 0 <= x_1_9 <= 1
 0 <= x_2_9 <= 1
 0 <= x_3_9 <= 1
 0 <= x_4_9 <= 1
 0 <= x_5_9 <= 1
 0 <= x_6_9 <= 1
 0 <= x_7_9 <= 1
 0 <= x_8_9 <= 1
 0 <= x_9_9 <= 1
 0 <= x_10_9 <= 1
 0 <= x_11_9 <= 1
 0 <= x_12_9 <= 1
 0 <= x_13_9 <= 1
 0 <= x_14_9 <= 1
 0 <= x_15_9 <= 1
 0 <= x_16_9 <= 1
 0 <= x_17_9 <= 1
 0 <= x_18_9 <= 1
 0 <= x_19_9 <= 1
 0 <= y_10 <= 1
 0 <= x_0_10 <= 1
 0 <= x_1_10 <= 1
 0 <= x_2_10 <= 1
 0 <= x_3_10 <= 1
 0 <= x_4_10 <= 1
 0 <= x_5_10 <= 1
 0 <= x_6_10 <= 1
 0 <= x_7_10 <= 1
 0 <= x_8_10 <= 1
 0 <= x_9_10 <= 1
 0 <= x_10_10 <= 1
 0 <= x_11_10 <= 1
 0 <= x_12_10 <= 1
 0 <= x_13_10 <= 1
 0 <= x_14_10 <= 1
 0 <= x_15_10 <= 1
 0 <= x_16_10 <= 1
 0 <= x_17_10 <= 1
 0 <= x_18_10 <= 1
 0 <= x_19_10 <= 1
 0 <= y_11 <= 1
 0 <= x_0_11 <= 1
 0 <= x_1_11 <= 1
 0 <= x_2_11 <= 1
 0 <= x_3_11 <= 1
 0 <= x_4_11 <= 1
 0 <= x_5_11 <= 1
 0 <= x_6_11 <= 1
 0 <= x_7_11 <= 1
 0 <= x_8_11 <= 1
 0 <= x_9_11 <= 1
 0 <= x_10_11 <= 1
 0 <= x_11_11 <= 1
 0 <= x_12_11 <= 1
 0 <= x_13_11 <= 1
 0 <= x_14_11 <= 1
 0 <= x_15_11 <= 1
 0 <= x_16_11 <= 1
 0 <= x_17_11 <= 1
 0 <= x_18_11 <= 1
 0 <= x_19_11 <= 1
 0 <= y_12 <= 1
 0 <= x_0_12 <= 1
 0 <= x_1_12 <= 1
 0 <= x_2_12 <= 1
 0 <= x_3_12 <= 1
 0 <= x_4_12 <= 1
 0 <= x_5_12 <= 1
 0 <= x_6_12 <= 1
 0 <= x_7_12 <= 1
 0 <= x_8_12 <= 1
 0 <= x_9_12 <= 1
 0 <= x_10_12 <= 1
 0 <= x_11_12 <= 1
 0 <= x_12_12 <= 1
 0 <= x_13_12 <= 1
 0 <= x_14_12 <= 1
 0 <= x_15_12 <= 1
 0 <= x_16_12 <= 1
 0 <= x_17_12 <= 1
 0 <= x_18_12 <= 1
 0 <= x_19_12 <= 1
 0 <= y_13 <= 1
 0 <= x_0_13 <= 1
 0 <= x_1_13 <= 1
 0 <= x_2_13 <= 1
 0 <= x_3_13 <= 1
 0 <= x_4_13 <= 1
 0 <= x_5_13 <= 1
 0 <= x_6_13 <= 1
 0 <= x_7_13 <= 1
 0 <= x_8_13 <= 1
 0 <= x_9_13 <= 1
 0 <= x_10_13 <= 1
 0 <= x_11_13 <= 1
 0 <= x_12_13 <= 1
 0 <= x_13_13 <= 1
 0 <= x_14_13 <= 1
 0 <= x_15_13 <= 1
 0 <= x_16_13 <= 1
 0 <= x_17_13 <= 1
 0 <= x_18_13 <= 1
 0 <= x_19_13 <= 1
 0 <= y_14 <= 1
 0 <= x_0_14 <= 1
 0 <= x_1_14 <= 1
 0 <= x_2_14 <= 1
 0 <= x_3_14 <= 1
 0 <= x_4_14 <= 1
 0 <= x_5_14 <= 1
 0 <= x_6_14 <= 1
 0 <= x_7_14 <= 1
 0 <= x_8_14 <= 1
 0 <= x_9_14 <= 1
 0 <= x_10_14 <= 1
 0 <= x_11_14 <= 1
 0 <= x_12_14 <= 1
 0 <= x_13_14 <= 1
 0 <= x_14_14 <= 1
 0 <= x_15_14 <= 1
 0 <= x_16_14 <= 1
 0 <= x_17_14 <= 1
 0 <= x_18_14 <= 1
 0 <= x_19_14 <= 1
 0 <= y_15 <= 1
 0 <= x_0_15 <= 1
 0 <= x_1_15 <= 1
 0 <= x_2_15 <= 1
 0 <= x_3_15 <= 1
 0 <= x_4_15 <= 1
 0 <= x_5_15 <= 1
 0 <= x_6_15 <= 1
 0 <= x_7_15 <= 1
 0 <= x_8_15 <= 1
 0 <= x_9_15 <= 1
 0 <= x_10_15 <= 1
 0 <= x_11_15 <= 1
 0 <= x_12_15 <= 1
 0 <= x_13_15 <= 1
 0 <= x_14_15 <= 1
 0 <= x_15_15 <= 1
 0 <= x_16_15 <= 1
 0 <= x_17_15 <= 1
 0 <= x_18_15 <= 1
 0 <= x_19_15 <= 1
 0 <= y_16 <= 1
 0 <= x_0_16 <= 1
 0 <= x_1_16 <= 1
 0 <= x_2_16 <= 1
 0 <= x_3_16 <= 1
 0 <= x_4_16 <= 1
 0 <= x_5_16 <= 1
 0 <= x_6_16 <= 1
 0 <= x_7_16 <= 1
 0 <= x_8_16 <= 1
 0 <= x_9_16 <= 1
 0 <= x_10_16 <= 1
 0 <= x_11_16 <= 1
 0 <= x_12_16 <= 1
 0 <= x_13_16 <= 1
 0 <= x_14_16 <= 1
 0 <= x_15_16 <= 1
 0 <= x_16_16 <= 1
 0 <= x_17_16 <= 1
 0 <= x_18_16 <= 1
 0 <= x_19_16 <= 1
 0 <= y_17 <= 1
 0 <= x_0_17 <= 1
 0 <= x_1_17 <= 1
 0 <= x_2_17 <= 1
 0 <= x_3_17 <= 1
 0 <= x_4_17 <= 1
 0 <= x_5_17 <= 1
 0 <= x_6_17 <= 1
 0 <= x_7_17 <= 1
 0 <= x_8_17 <= 1
 0 <= x_9_17 <= 1
 0 <= x_10_17 <= 1
 0 <= x_11_17 <= 1
 0 <= x_12_17 <= 1
 0 <= x_13_17 <= 1
 0 <= x_14_17 <= 1
 0 <= x_15_17 <= 1
 0 <= x_16_17 <= 1
 0 <= x_17_17 <= 1
 0 <= x_18_17 <= 1
 0 <= x_19_17 <= 1
 0 <= y_18 <= 1
 0 <= x_0_18 <= 1
 0 <= x_1_18 <= 1
 0 <= x_2_18 <= 1
 0 <= x_3_18 <= 1
 0 <= x_4_18 <= 1
 0 <= x_5_18 <= 1
 0 <= x_6_18 <= 1
 0 <= x_7_18 <= 1
 0 <= x_8_18 <= 1
 0 <= x_9_18 <= 1
 0 <= x_10_18 <= 1
 0 <= x_11_18 <= 1
 0 <= x_12_18 <= 1
 0 <= x_13_18 <= 1
 0 <= x_14_18 <= 1
 0 <= x_15_18 <= 1
 0 <= x_16_18 <= 1
 0 <= x_17_18 <= 1
 0 <= x_18_18 <= 1
 0 <= x_19_18 <= 1
 0 <= y_19 <= 1
 0 <= x_0_19 <= 1
 0 <= x_1_19 <= 1
 0 <= x_2_19 <= 1
 0 <= x_3_19 <= 1
 0 <= x_4_19 <= 1
 0 <= x_5_19 <= 1
 0 <= x_6_19 <= 1
 0 <= x_7_19 <= 1
 0 <= x_8_19 <= 1
 0 <= x_9_19 <= 1
 0 <= x_10_19 <= 1
 0 <= x_11_19 <= 1
 0 <= x_12_19 <= 1
 0 <= x_13_19 <= 1
 0 <= x_14_19 <= 1
 0 <= x_15_19 <= 1
 0 <= x_16_19 <= 1
 0 <= x_17_19 <= 1
 0 <= x_18_19 <= 1
 0 <= x_19_19 <= 1
Binaries
 y_0 x_0_0 x_1_0 x_2_0 x_3_0 x_4_0 x_5_0 x_6_0 x_7_0 x_8_0 x_9_0 x_10_0 x_11_0 x_12_0 x_13_0 x_14_0 x_15_0
 x_16_0 x_17_0 x_18_0 x_19_0 y_1 x_0_1 x_1_1 x_2_1 x_3_1 x_4_1 x_5_1 x_6_1 x_7_1 x_8_1 x_9_1 x_10_1 x_11_1
 x_12_1 x_13_1 x_14_1 x_15_1 x_16_1 x_17_1 x_18_1 x_19_1 y_2 x_0_2 x_1_2 x_2_2 x_3_2 x_4_2 x_5_2 x_6_2
 x_7_2 x_8_2 x_9_2 x_10_2 x_11_2 x_12_2 x_13_2 x_14_2 x_15_2 x_16_2 x_17_2 x_18_2 x_19_2 y_3 x_0_3 x_1_3
 x_2_3 x_3_3 x_4_3 x_5_3 x_6_3 x_7_3 x_8_3 x_9_3 x_10_3 x_11_3 x_12_3 x_13_3 x_14_3 x_15_3 x_16_3 x_17_3
 x_18_3 x_19_3 y_4 x_0_4 x_1_4 x_2_4 x_3_4 x_4_4 x_5_4 x_6_4 x_7_4 x_8_4 x_9_4 x_10_4 x_11_4 x_12_4 x_13_4
 x_14_4 x_15_4 x_16_4 x_17_4 x_18_4 x_19_4 y_5 x_0_5 x_1_5 x_2_5 x_3_5 x_4_5 x_5_5 x_6_5 x_7_5 x_8_5 x_9_5
 x_10_5 x_11_5 x_12_5 x_13_5 x_14_5 x_15_5 x_16_5 x_17_5 x_18_5 x_19_5 y_6 x_0_6 x_1_6 x_2_6 x_3_6 x_4_6
 x_5_6 x_6_6 x_7_6 x_8_6 x_9_6 x_10_6 x_11_6 x_12_6 x_13_6 x_14_6 x_15_6 x_16_6 x_17_6 x_18_6 x_19_6 y_7
 x_0_7 x_1_7 x_2_7 x_3_7 x_4_7 x_5_7 x_6_7 x_7_7 x_8_7 x_9_7 x_10_7 x_11_7 x_12_7 x_13_7 x_14_7 x_15_7
 x_16_7 x_17_7 x_18_7 x_19_7 y_8 x_0_8 x_1_8 x_2_8 x_3_8 x_4_8 x_5_8 x_6_8 x_7_8 x_8_8 x_9_8 x_10_8 x_11_8
 x_12_8 x_13_8 x_14_8 x_15_8 x_16_8 x_17_8 x_18_8 x_19_8 y_9 x_0_9 x_1_9 x_2_9 x_3_9 x_4_9 x_5_9 x_6_9
 x_7_9 x_8_9 x_9_9 x_10_9 x_11_9 x_12_9 x_13_9 x_14_9 x_15_9 x_16_9 x_17_9 x_18_9 x_19_9 y_10 x_0_10 x_1_10
 x_2_10 x_3_10 x_4_10 x_5_10 x_6_10 x_7_10 x_8_10 x_9_10 x_10_10 x_11_10 x_12_10 x_13_10 x_14_10 x_15_10
 x_16_10 x_17_10 x_18_10 x_19_10 y_11 x_0_11 x_1_11 x_2_11 x_3_11 x_4_11 x_5_11 x_6_11 x_7_11 x_8_11 x_9_11
 x_10_11 x_11_11 x_12_11 x_13_11 x_14_11 x_15_11 x_16_11 x_17_11 x_18_11 x_19_11 y_12 x_0_12 x_1_12 x_2_12
 x_3_12 x_4_12 x_5_12 x_6_12 x_7_12 x_8_12 x_9_12 x_10_12 x_11_12 x_12_12 x_13_12 x_14_12 x_15_12 x_16_12
 x_17_12 x_18_12 x_19_12 y_13 x_0_13 x_1_13 x_2_13 x_3_13 x_4_13 x_5_13 x_6_13 x_7_13 x_8_13 x_9_13 x_10_13
 x_11_13 x_12_13 x_13_13 x_14_13 x_15_13 x_16_13 x_17_13 x_18_13 x_19_13 y_14 x_0_14 x_1_14 x_2_14 x_3_14
 x_4_14 x_5_14 x_6_14 x_7_14 x_8_14 x_9_14 x_10_14 x_11_14 x_12_14 x_13_14 x_14_14 x_15_14 x_16_14 x_17_14
 x_18_14 x_19_14 y_15 x_0_15 x_1_15 x_2_15 x_3_15 x_4_15 x_5_15 x_6_15 x_7_15 x_8_15 x_9_15 x_10_15 x_11_15
 x_12_15 x_13_15 x_14_15 x_15_15 x_16_15 x_17_15 x_18_15 x_19_15 y_16 x_0_16 x_1_16 x_2_16 x_3_16 x_4_16
 x_5_16 x_6_16 x_7_16 x_8_16 x_9_16 x_10_16 x_11_16 x_12_16 x_13_16 x_14_16 x_15_16 x_16_16 x_17_16 x_18_16
 x_19_16 y_17 x_0_17 x_1_17 x_2_17 x_3_17 x_4_17 x_5_17 x_6_17 x_7_17 x_8_17 x_9_17 x_10_17 x_11_17 x_12_17
 x_13_17 x_14_17 x_15_17 x_16_17 x_17_17 x_18_17 x_19_17 y_18 x_0_18 x_1_18 x_2_18 x_3_18 x_4_18 x_5_18
 x_6_18 x_7_18 x_8_18 x_9_18 x_10_18 x_11_18 x_12_18 x_13_18 x_14_18 x_15_18 x_16_18 x_17_18 x_18_18 x_19_18
 y_19 x_0_19 x_1_19 x_2_19 x_3_19 x_4_19 x_5_19 x_6_19 x_7_19 x_8_19 x_9_19 x_10_19 x_11_19 x_12_19 x_13_19
 x_14_19 x_15_19 x_16_19 x_17_19 x_18_19 x_19_19
End
